Traveling Salesman Problem/TSP_generados/Aleatorio1621103334_10.tsp
NAME: Aleatorio1621103334_10.tsp
COMMENT: Randomly generated scenario
TYPE: TSP
DIMENSION: 10
EDGE_WEIGHT_TYPE: ATT
NODE_COORD_SECTION
1 44.32 18.43
2 7.94 29.04
3 32.37 19.43
4 31.29 44.88
5 14.09 3.79
6 29.5 3.62
7 24.75 8.82
8 36.99 35.3
9 31.83 31.56
10 29.94 17.77
