Traveling Salesman Problem/TSP_generados/Aleatorio1621103334_10.opt.tour
NAME: Aleatorio1621103334_10.opt.tour
COMMENT: Optimal solution for Aleatorio1621103334_10 (137.58040114089616)
TYPE: TOUR
DIMENSION: 10
TOUR_SECTION
1 3 10 7 6 5 2 4 8 9
-1
EOF
